webassembly/ejemplos_results/9/folder9_json_27.txt
value = 9;
fgas = [1, 1, 1, 1, 2, 1, 1, 1, 1];
fsize = [1, 1, 1, 1, 1, 1, 1, 1, 1];
states = 
[|    in_0,    in_1,    '.',    '.', '.', '.', '.', '.', '.'
 |    in_0,    in_1,    '.',    '.', '.', '.', '.', '.', '.'
 |  's(5)',    in_0,   in_1,    '.', '.', '.', '.', '.', '.'
 |  's(2)',  's(1)',   in_1,    '.', '.', '.', '.', '.', '.'
 |  's(3)',    in_1,    '.',    '.', '.', '.', '.', '.', '.'
 |    in_1,     '.',    '.',    '.', '.', '.', '.', '.', '.'
 |  's(0)',  's(0)',    '.',    '.', '.', '.', '.', '.', '.'
 | local_1,    in_0, 's(0)',    '.', '.', '.', '.', '.', '.'
 |  's(1)',  's(3)', 's(0)',    '.', '.', '.', '.', '.', '.'
 |  's(4)', local_1, 's(3)', 's(0)', '.', '.', '.', '.', '.'
 |];
register_states = 
[| local_0, '.', '.', '.', '.'
 |    in_0, '.', '.', '.', '.'
 |    in_0, '.', '.', '.', '.'
 |    in_0, '.', '.', '.', '.'
 |    in_0, '.', '.', '.', '.'
 |    in_0, '.', '.', '.', '.'
 |    in_0, '.', '.', '.', '.'
 |    in_0, '.', '.', '.', '.'
 |    in_0, '.', '.', '.', '.'
 |    in_0, '.', '.', '.', '.'
 |];
program = [TEE(TEE1), O('i32.const_1'), O('i32.load8_u_5'), O('i32.sub_0'), POP, O('i32.load16_s_1'), O('local.get_0'), O('i32.load_3'), O('i32.const_0')];
% time elapsed: 0.09 s
----------
value = 8;
fgas = [1, 1, 1, 1, 1, 1, 1, 1, 0];
fsize = [1, 1, 1, 1, 1, 1, 1, 1, 1];
states = 
[|    in_0,    in_1,    '.',    '.', '.', '.', '.', '.',  '.'
 |    in_1,     '.',    '.',    '.', '.', '.', '.', '.',  '.'
 |  's(0)',  's(3)',    '.',    '.', '.', '.', '.', '.',  '.'
 |  's(5)',    in_0, 's(3)',    '.', '.', '.', '.', '.',  '.'
 |  's(2)',  's(1)', 's(3)',    '.', '.', '.', '.', '.',  '.'
 |  's(3)',  's(0)',    '.',    '.', '.', '.', '.', '.', in_0
 | local_1,    in_0, 's(0)',    '.', '.', '.', '.', '.',  '.'
 |  's(1)',  's(3)', 's(0)',    '.', '.', '.', '.', '.',  '.'
 |  's(4)', local_1, 's(3)', 's(0)', '.', '.', '.', '.',  '.'
 |  's(4)', local_1, 's(3)', 's(0)', '.', '.', '.', '.',  '.'
 |];
register_states = 
[| local_0, '.', '.', '.', '.'
 |    in_0, '.', '.', '.', '.'
 |    in_0, '.', '.', '.', '.'
 |    in_0, '.', '.', '.', '.'
 |    in_0, '.', '.', '.', '.'
 |    in_0, '.', '.', '.', '.'
 |    in_0, '.', '.', '.', '.'
 |    in_0, '.', '.', '.', '.'
 |    in_0, '.', '.', '.', '.'
 |    in_0, '.', '.', '.', '.'
 |];
program = [S(SET1), O('i32.load16_s_1'), O('i32.const_1'), O('i32.load8_u_5'), O('i32.sub_0'), O('local.get_0'), O('i32.load_3'), O('i32.const_0'), NOP];
% time elapsed: 0.09 s
----------
==========
% time elapsed: 0.09 s
% [value > 7]
